
(set-logic ALL) 

(declare-datatype MyList ((Nil) (Cons (head Real) (tail MyList)) )) 
(declare-fun l0 () MyList) 
(declare-fun l1 () MyList) 
(declare-fun l2 () MyList) 
(declare-fun l3 () MyList) 
(declare-fun i0 () Real) 
(declare-fun i1 () Real) 
(assert (is-Nil Nil) )
(assert (= l0 Nil) )
(assert (= l2 Nil) )
(assert (or (= l2 Nil) (= l2 Nil) (= l0 Nil) (is-Nil Nil)) )
(assert (and (= l3 Nil) (is-Nil l3) (= l0 Nil)) )
(assert (= l2 l2) )
(assert (not (= l0 Nil)) )
(assert (or (is-Cons Nil) (is-Cons l0) (= l3 l3) (= l2 Nil)) )
(check-sat)
